53696
9, 12, 18, 4, 30, 47, 55, 28, 6, 3, 43, 13, 51, 40, 7, 37, 20, 50, 24, 35, 5, 41, 32, 8, 38, 44, 19, 17, 48, 49, 26, 54, 34, 53, 23, 21, 29, 22, 10, 16, 39, 46, 36, 15, 52, 25, 31, 27, 1, 33, 42, 11, 45, 2, 14
